
Gurobi 8.1.1 (win64) logging started 01/10/20 23:24:26

Changed value of parameter LogFile to ./fixed/gurobi.log
   Prev: gurobi.log  Default: 
Changed value of parameter TimeLimit to 300.0
   Prev: 1e+100  Min: 0.0  Max: 1e+100  Default: 1e+100
Optimize a model with 3792 rows, 14253 columns and 314440 nonzeros
Variable types: 483 continuous, 13770 integer (13770 binary)
Coefficient statistics:
  Matrix range     [3e-01, 5e+00]
  Objective range  [3e+01, 1e+02]
  Bounds range     [1e+00, 1e+00]
  RHS range        [1e+00, 3e+01]
Found heuristic solution: objective 682030.00000
Presolve removed 1228 rows and 3384 columns
Presolve time: 0.54s
Presolved: 2564 rows, 10869 columns, 118159 nonzeros
Variable types: 357 continuous, 10512 integer (10385 binary)

Root relaxation: objective 1.301059e+04, 15100 iterations, 1.84 seconds

    Nodes    |    Current Node    |     Objective Bounds      |     Work
 Expl Unexpl |  Obj  Depth IntInf | Incumbent    BestBd   Gap | It/Node Time

     0     0 13010.5882    0  518 682030.000 13010.5882  98.1%     -    3s
H    0     0                    150960.00000 13010.5882  91.4%     -    3s
H    0     0                    20760.000000 13010.5882  37.3%     -    3s
H    0     0                    17540.000000 13010.5882  25.8%     -    3s
H    0     0                    17330.000000 13010.5882  24.9%     -    3s
H    0     0                    17120.000000 13010.5882  24.0%     -    3s
H    0     0                    16350.000000 13010.5882  20.4%     -    5s
     0     0 13021.3382    0 1349 16350.0000 13021.3382  20.4%     -    5s
H    0     0                    16140.000000 13021.3382  19.3%     -    5s
H    0     0                    16130.000000 13021.3382  19.3%     -    6s
     0     0 13054.2815    0 1214 16130.0000 13054.2815  19.1%     -    6s
H    0     0                    16085.000000 13054.2815  18.8%     -    6s
     0     0 13067.9168    0 1136 16085.0000 13067.9168  18.8%     -    6s
     0     0 13067.9168    0 1026 16085.0000 13067.9168  18.8%     -    7s
H    0     0                    16040.000000 13067.9168  18.5%     -    9s
H    0     0                    15995.000000 13067.9168  18.3%     -    9s
H    0     0                    15965.000000 13067.9168  18.1%     -    9s
     0     0 13109.3132    0 1473 15965.0000 13109.3132  17.9%     -    9s
H    0     0                    15875.000000 13109.3132  17.4%     -   11s
H    0     0                    15785.000000 13109.3132  17.0%     -   11s
     0     0 13204.4536    0 1381 15785.0000 13204.4536  16.3%     -   11s
H    0     0                    15710.000000 13204.4536  15.9%     -   13s
H    0     0                    15695.000000 13204.4536  15.9%     -   13s
     0     0 13238.4863    0 1365 15695.0000 13238.4863  15.7%     -   13s
H    0     0                    15575.000000 13238.4863  15.0%     -   14s
     0     0 13238.4863    0 1279 15575.0000 13238.4863  15.0%     -   14s
H    0     0                    15455.000000 13238.4863  14.3%     -   18s
H    0     0                    15335.000000 13238.4863  13.7%     -   18s
H    0     0                    15080.000000 13238.4863  12.2%     -   18s
H    0     0                    15020.000000 13238.4863  11.9%     -   18s
     0     0 13310.0882    0 1561 15020.0000 13310.0882  11.4%     -   18s
H    0     0                    15004.999994 13310.0882  11.3%     -   21s
H    0     0                    14960.000000 13310.0882  11.0%     -   21s
H    0     0                    14900.000000 13310.0882  10.7%     -   21s
H    0     0                    14870.000000 13310.0882  10.5%     -   21s
     0     0 13368.5882    0 1504 14870.0000 13368.5882  10.1%     -   21s
     0     0 13373.5882    0 1487 14870.0000 13373.5882  10.1%     -   24s
     0     0 13373.5882    0 1488 14870.0000 13373.5882  10.1%     -   26s
H    0     0                    14869.999996 13373.5882  10.1%     -   30s
H    0     0                    14839.999993 13373.5882  9.88%     -   30s
H    0     0                    14810.000000 13373.5882  9.70%     -   30s
H    0     0                    14780.000000 13373.5882  9.52%     -   30s
     0     0 13379.9729    0 1728 14780.0000 13379.9729  9.47%     -   30s

Gurobi 8.1.1 (win64) logging started 01/10/20 23:24:59

Changed value of parameter LogFile to ./fixed/gurobi.log
   Prev: gurobi.log  Default: 
Changed value of parameter TimeLimit to 300.0
   Prev: 1e+100  Min: 0.0  Max: 1e+100  Default: 1e+100
Optimize a model with 3792 rows, 14253 columns and 314440 nonzeros
Variable types: 483 continuous, 13770 integer (13770 binary)
Coefficient statistics:
  Matrix range     [3e-01, 5e+00]
  Objective range  [3e+01, 1e+02]
  Bounds range     [1e+00, 1e+00]
  RHS range        [1e+00, 3e+01]
Found heuristic solution: objective 682030.00000
Presolve removed 1228 rows and 3384 columns
Presolve time: 0.80s
Presolved: 2564 rows, 10869 columns, 118159 nonzeros
Variable types: 357 continuous, 10512 integer (10385 binary)
     0     0 13409.3235    0 1751 14780.0000 13409.3235  9.27%     -   35s

Root relaxation: objective 1.301059e+04, 15100 iterations, 2.26 seconds
Total elapsed time = 5.05s

    Nodes    |    Current Node    |     Objective Bounds      |     Work
 Expl Unexpl |  Obj  Depth IntInf | Incumbent    BestBd   Gap | It/Node Time

     0     0 13010.5882    0  518 682030.000 13010.5882  98.1%     -    5s
H    0     0                    150960.00000 13010.5882  91.4%     -    5s
H    0     0                    20760.000000 13010.5882  37.3%     -    5s
H    0     0                    17540.000000 13010.5882  25.8%     -    5s
H    0     0                    17330.000000 13010.5882  24.9%     -    5s
H    0     0                    17120.000000 13010.5882  24.0%     -    5s
     0     0 13409.6985    0 1683 14780.0000 13409.6985  9.27%     -   40s
H    0     0                    16350.000000 13010.5882  20.4%     -    7s
     0     0 13021.3382    0 1349 16350.0000 13021.3382  20.4%     -    8s
H    0     0                    16140.000000 13021.3382  19.3%     -    8s
H    0     0                    16130.000000 13021.3382  19.3%     -    9s
     0     0 13054.2815    0 1214 16130.0000 13054.2815  19.1%     -    9s
H    0     0                    16085.000000 13054.2815  18.8%     -   10s
     0     0 13067.9168    0 1136 16085.0000 13067.9168  18.8%     -   10s
     0     0 13067.9168    0 1026 16085.0000 13067.9168  18.8%     -   10s
     0     0 13410.4485    0 1690 14780.0000 13410.4485  9.27%     -   44s
H    0     0                    16040.000000 13067.9168  18.5%     -   14s
H    0     0                    15995.000000 13067.9168  18.3%     -   14s
     0     0 13410.4485    0 1683 14780.0000 13410.4485  9.27%     -   47s
H    0     0                    15965.000000 13067.9168  18.1%     -   14s
     0     0 13109.3132    0 1473 15965.0000 13109.3132  17.9%     -   14s
H    0     0                    15875.000000 13109.3132  17.4%     -   17s
H    0     0                    15785.000000 13109.3132  17.0%     -   17s
     0     0 13204.4536    0 1381 15785.0000 13204.4536  16.3%     -   17s
H    0     0                    15710.000000 13204.4536  15.9%     -   19s
H    0     0                    15695.000000 13204.4536  15.9%     -   19s
     0     0 13238.4863    0 1365 15695.0000 13238.4863  15.7%     -   19s
H    0     0                    15575.000000 13238.4863  15.0%     -   19s
     0     0 13238.4863    0 1279 15575.0000 13238.4863  15.0%     -   19s
H    0     0                    14719.999976 13410.4485  8.90%     -   55s
     0     0 13412.6360    0 1779 14720.0000 13412.6360  8.88%     -   55s
H    0     0                    15455.000000 13238.4863  14.3%     -   23s
H    0     0                    15335.000000 13238.4863  13.7%     -   23s
H    0     0                    15080.000000 13238.4863  12.2%     -   23s
H    0     0                    15020.000000 13238.4863  11.9%     -   23s
     0     0 13310.0882    0 1561 15020.0000 13310.0882  11.4%     -   23s
H    0     0                    15004.999994 13310.0882  11.3%     -   26s
H    0     0                    14960.000000 13310.0882  11.0%     -   26s
H    0     0                    14900.000000 13310.0882  10.7%     -   26s
H    0     0                    14870.000000 13310.0882  10.5%     -   26s
     0     0 13368.5882    0 1504 14870.0000 13368.5882  10.1%     -   26s
     0     0 13373.5882    0 1487 14870.0000 13373.5882  10.1%     -   28s
     0     0 13499.4485    0 1712 14720.0000 13499.4485  8.29%     -   62s
     0     0 13373.5882    0 1488 14870.0000 13373.5882  10.1%     -   30s
     0     0 13524.0485    0 1698 14720.0000 13524.0485  8.12%     -   67s
H    0     0                    14869.999996 13373.5882  10.1%     -   34s
H    0     0                    14839.999993 13373.5882  9.88%     -   35s
H    0     0                    14810.000000 13373.5882  9.70%     -   35s
H    0     0                    14780.000000 13373.5882  9.52%     -   35s
     0     0 13379.9729    0 1728 14780.0000 13379.9729  9.47%     -   35s
     0     0 13563.5943    0 1675 14720.0000 13563.5943  7.86%     -   69s
     0     0 13563.6608    0 1620 14720.0000 13563.6608  7.86%     -   72s
     0     0 13409.3235    0 1751 14780.0000 13409.3235  9.27%     -   41s
     0     0 13563.7122    0 1767 14720.0000 13563.7122  7.86%     -   76s
     0     0 13409.6985    0 1683 14780.0000 13409.6985  9.27%     -   47s
     0     0 13577.3235    0 1723 14720.0000 13577.3235  7.76%     -   84s
     0     0 13410.4485    0 1690 14780.0000 13410.4485  9.27%     -   53s
     0     0 13601.3235    0 1693 14720.0000 13601.3235  7.60%     -   89s
     0     0 13410.4485    0 1683 14780.0000 13410.4485  9.27%     -   57s
     0     0 13601.3235    0 1671 14720.0000 13601.3235  7.60%     -   92s
     0     0 13623.8235    0 1694 14720.0000 13623.8235  7.45%     -   96s
H    0     0                    14719.999976 13410.4485  8.90%     -   65s
     0     0 13412.6360    0 1779 14720.0000 13412.6360  8.88%     -   65s
     0     0 13650.8235    0 1626 14720.0000 13650.8235  7.26%     -  101s
H    0     0                    14690.000000 13650.8235  7.07%     -  104s
     0     0 13650.8235    0 1670 14690.0000 13650.8235  7.07%     -  104s
     0     0 13499.4485    0 1712 14720.0000 13499.4485  8.29%     -   74s
     0     0 13673.3235    0 1657 14690.0000 13673.3235  6.92%     -  110s
     0     0 13524.0485    0 1698 14720.0000 13524.0485  8.12%     -   80s
     0     0 13563.5943    0 1675 14720.0000 13563.5943  7.86%     -   84s
H    0     0                    14660.000000 13673.3235  6.73%     -  117s
     0     0 13563.6608    0 1620 14720.0000 13563.6608  7.86%     -   87s
     0     0 13673.3235    0 1679 14660.0000 13673.3235  6.73%     -  122s
     0     0 13563.7122    0 1767 14720.0000 13563.7122  7.86%     -   92s
     0     0 13674.4485    0 1700 14660.0000 13674.4485  6.72%     -  126s
     0     0 13577.3235    0 1723 14720.0000 13577.3235  7.76%     -   97s
     0     0 13601.3235    0 1693 14720.0000 13601.3235  7.60%     -  101s
     0     0 13601.3235    0 1671 14720.0000 13601.3235  7.60%     -  104s
     0     0 13623.8235    0 1694 14720.0000 13623.8235  7.45%     -  107s
     0     0 13650.8235    0 1626 14720.0000 13650.8235  7.26%     -  110s
     0     0 13674.4485    0  974 14660.0000 13674.4485  6.72%     -  144s
H    0     0                    14690.000000 13650.8235  7.07%     -  112s
     0     0 13650.8235    0 1670 14690.0000 13650.8235  7.07%     -  112s
     0     0 13673.3235    0 1657 14690.0000 13673.3235  6.92%     -  115s
H    0     0                    14660.000000 13673.3235  6.73%     -  120s
     0     0 13673.3235    0 1679 14660.0000 13673.3235  6.73%     -  123s
     0     0 13674.4485    0 1700 14660.0000 13674.4485  6.72%     -  125s
     0     0 13674.4485    0  974 14660.0000 13674.4485  6.72%     -  139s
     0     2 13674.4485    0  770 14660.0000 13674.4485  6.72%     -  177s
     1     2     cutoff    1      14660.0000 13677.1250  6.70% 36000  186s
     3     4 13680.6724    2 1344 14660.0000 13679.0000  6.69% 15031  196s
     5     8 13700.5000    3 1503 14660.0000 13680.5000  6.68% 10945  202s
     0     2 13674.4485    0  770 14660.0000 13674.4485  6.72%     -  175s
     9    12 13700.5000    4 1490 14660.0000 13700.5000  6.55%  8696  214s
    13    16 13700.5000    4 1510 14660.0000 13700.5000  6.55%  9049  220s
     1     2     cutoff    1      14660.0000 13677.1250  6.70% 36000  190s
    21    18 13700.5000    6 1349 14660.0000 13700.5000  6.55%  6763  228s
    25    26 13700.5000    7 1346 14660.0000 13700.5000  6.55%  6012  233s
     3     4 13680.6724    2 1344 14660.0000 13679.0000  6.69% 15031  206s
    29    29 13700.7500    7 1349 14660.0000 13700.5000  6.55%  5723  241s
    33    33 13700.5000    8 1371 14660.0000 13700.5000  6.55%  5610  246s
     5     8 13700.5000    3 1503 14660.0000 13680.5000  6.68% 10945  215s
    37    36 13700.5000    8 1322 14660.0000 13700.5000  6.55%  5226  251s
    41    39 13700.5000    9 1303 14660.0000 13700.5000  6.55%  4907  261s
     9    12 13700.5000    4 1490 14660.0000 13700.5000  6.55%  8696  232s
    13    16 13700.5000    4 1510 14660.0000 13700.5000  6.55%  9049  242s
    17    20 13700.5000    5 1398 14660.0000 13700.5000  6.55%  7751  246s
    50    56 13700.7500   10 1364 14660.0000 13700.5000  6.55%  4502  280s
    21    18 13700.5000    6 1349 14660.0000 13700.5000  6.55%  6763  250s
    25    26 13700.5000    7 1346 14660.0000 13700.5000  6.55%  6012  256s
    29    29 13700.7500    7 1349 14660.0000 13700.5000  6.55%  5723  263s
    69    61 13717.0714   11 1288 14660.0000 13700.5000  6.55%  3861  300s
H   70    65                    14630.000000 13700.5000  6.35%  3806  300s

Cutting planes:
  Gomory: 5
  Cover: 637
  Clique: 1292
  MIR: 52
  StrongCG: 5
  GUB cover: 95
  Zero half: 70

Explored 72 nodes (436952 simplex iterations) in 300.03 seconds
Thread count was 8 (of 8 available processors)

Solution count 10: 14630 14660 14690 ... 14900

Time limit reached
Best objective 1.463000000000e+04, best bound 1.370050000000e+04, gap 6.3534%
    33    33 13700.5000    8 1371 14660.0000 13700.5000  6.55%  5610  267s
    37    36 13700.5000    8 1322 14660.0000 13700.5000  6.55%  5226  271s
    41    39 13700.5000    9 1303 14660.0000 13700.5000  6.55%  4907  276s

Gurobi 8.1.1 (win64) logging started 01/10/20 23:29:41

Changed value of parameter LogFile to ./fixed/gurobi.log
   Prev: gurobi.log  Default: 
Changed value of parameter TimeLimit to 300.0
   Prev: 1e+100  Min: 0.0  Max: 1e+100  Default: 1e+100
Optimize a model with 3792 rows, 14253 columns and 314440 nonzeros
Variable types: 483 continuous, 13770 integer (13770 binary)
Coefficient statistics:
  Matrix range     [3e-01, 5e+00]
  Objective range  [3e+01, 1e+02]
  Bounds range     [1e+00, 1e+00]
  RHS range        [1e+00, 3e+01]
Found heuristic solution: objective 682030.00000
Presolve removed 1228 rows and 3384 columns
Presolve time: 1.15s
Presolved: 2564 rows, 10869 columns, 118159 nonzeros
Variable types: 357 continuous, 10512 integer (10385 binary)

Root relaxation: objective 1.301059e+04, 15100 iterations, 2.89 seconds
Total elapsed time = 5.15s
    50    56 13700.7500   10 1364 14660.0000 13700.5000  6.55%  4502  288s

    Nodes    |    Current Node    |     Objective Bounds      |     Work
 Expl Unexpl |  Obj  Depth IntInf | Incumbent    BestBd   Gap | It/Node Time

     0     0 13010.5882    0  518 682030.000 13010.5882  98.1%     -    5s
H    0     0                    150960.00000 13010.5882  91.4%     -    5s
H    0     0                    20760.000000 13010.5882  37.3%     -    5s
H    0     0                    17540.000000 13010.5882  25.8%     -    6s
H    0     0                    17330.000000 13010.5882  24.9%     -    6s
H    0     0                    17120.000000 13010.5882  24.0%     -    6s
H    0     0                    16350.000000 13010.5882  20.4%     -    9s
     0     0 13021.3382    0 1349 16350.0000 13021.3382  20.4%     -    9s
H    0     0                    16140.000000 13021.3382  19.3%     -    9s
H    0     0                    16130.000000 13021.3382  19.3%     -   11s
     0     0 13054.2815    0 1214 16130.0000 13054.2815  19.1%     -   11s
H    0     0                    16085.000000 13054.2815  18.8%     -   11s
     0     0 13067.9168    0 1136 16085.0000 13067.9168  18.8%     -   11s
     0     0 13067.9168    0 1026 16085.0000 13067.9168  18.8%     -   12s
H    0     0                    16040.000000 13067.9168  18.5%     -   16s
H    0     0                    15995.000000 13067.9168  18.3%     -   16s
H    0     0                    15965.000000 13067.9168  18.1%     -   16s
     0     0 13109.3132    0 1473 15965.0000 13109.3132  17.9%     -   16s

Cutting planes:
  Gomory: 5
  Cover: 637
  Clique: 1292
  MIR: 52
  StrongCG: 5
  GUB cover: 95
  Zero half: 70

Explored 69 nodes (425996 simplex iterations) in 300.03 seconds
Thread count was 8 (of 8 available processors)

Solution count 10: 14660 14690 14720 ... 14960

Time limit reached
Best objective 1.466000000000e+04, best bound 1.370050000000e+04, gap 6.5450%
H    0     0                    15875.000000 13109.3132  17.4%     -   18s
H    0     0                    15785.000000 13109.3132  17.0%     -   18s
     0     0 13204.4536    0 1381 15785.0000 13204.4536  16.3%     -   18s
H    0     0                    15710.000000 13204.4536  15.9%     -   19s
H    0     0                    15695.000000 13204.4536  15.9%     -   19s
     0     0 13238.4863    0 1365 15695.0000 13238.4863  15.7%     -   19s
H    0     0                    15575.000000 13238.4863  15.0%     -   20s
     0     0 13238.4863    0 1279 15575.0000 13238.4863  15.0%     -   20s
H    0     0                    15455.000000 13238.4863  14.3%     -   22s
H    0     0                    15335.000000 13238.4863  13.7%     -   22s
H    0     0                    15080.000000 13238.4863  12.2%     -   22s
H    0     0                    15020.000000 13238.4863  11.9%     -   22s
     0     0 13310.0882    0 1561 15020.0000 13310.0882  11.4%     -   22s
H    0     0                    15004.999994 13310.0882  11.3%     -   24s
H    0     0                    14960.000000 13310.0882  11.0%     -   24s
H    0     0                    14900.000000 13310.0882  10.7%     -   24s
H    0     0                    14870.000000 13310.0882  10.5%     -   24s
     0     0 13368.5882    0 1504 14870.0000 13368.5882  10.1%     -   24s
     0     0 13373.5882    0 1487 14870.0000 13373.5882  10.1%     -   26s
     0     0 13373.5882    0 1488 14870.0000 13373.5882  10.1%     -   27s
H    0     0                    14869.999996 13373.5882  10.1%     -   30s
H    0     0                    14839.999993 13373.5882  9.88%     -   30s
H    0     0                    14810.000000 13373.5882  9.70%     -   30s
H    0     0                    14780.000000 13373.5882  9.52%     -   30s
     0     0 13379.9729    0 1728 14780.0000 13379.9729  9.47%     -   31s
     0     0 13409.3235    0 1751 14780.0000 13409.3235  9.27%     -   35s
     0     0 13409.6985    0 1683 14780.0000 13409.6985  9.27%     -   39s
     0     0 13410.4485    0 1690 14780.0000 13410.4485  9.27%     -   42s
     0     0 13410.4485    0 1683 14780.0000 13410.4485  9.27%     -   44s
H    0     0                    14719.999976 13410.4485  8.90%     -   49s
     0     0 13412.6360    0 1779 14720.0000 13412.6360  8.88%     -   49s
     0     0 13499.4485    0 1712 14720.0000 13499.4485  8.29%     -   55s
     0     0 13524.0485    0 1698 14720.0000 13524.0485  8.12%     -   60s
     0     0 13563.5943    0 1675 14720.0000 13563.5943  7.86%     -   63s
     0     0 13563.6608    0 1620 14720.0000 13563.6608  7.86%     -   65s
     0     0 13563.7122    0 1767 14720.0000 13563.7122  7.86%     -   68s
     0     0 13577.3235    0 1723 14720.0000 13577.3235  7.76%     -   72s
     0     0 13601.3235    0 1693 14720.0000 13601.3235  7.60%     -   74s
     0     0 13601.3235    0 1671 14720.0000 13601.3235  7.60%     -   76s
     0     0 13623.8235    0 1694 14720.0000 13623.8235  7.45%     -   79s
     0     0 13650.8235    0 1626 14720.0000 13650.8235  7.26%     -   82s
H    0     0                    14690.000000 13650.8235  7.07%     -   84s
     0     0 13650.8235    0 1670 14690.0000 13650.8235  7.07%     -   84s
     0     0 13673.3235    0 1657 14690.0000 13673.3235  6.92%     -   88s
H    0     0                    14660.000000 13673.3235  6.73%     -   94s
     0     0 13673.3235    0 1679 14660.0000 13673.3235  6.73%     -   98s
     0     0 13674.4485    0 1700 14660.0000 13674.4485  6.72%     -  101s
     0     0 13674.4485    0  974 14660.0000 13674.4485  6.72%     -  120s
     0     2 13674.4485    0  770 14660.0000 13674.4485  6.72%     -  158s
     1     2     cutoff    1      14660.0000 13677.1250  6.70% 36000  167s
     3     4 13680.6724    2 1344 14660.0000 13679.0000  6.69% 15031  180s
     5     8 13700.5000    3 1503 14660.0000 13680.5000  6.68% 10945  188s
     9    12 13700.5000    4 1490 14660.0000 13700.5000  6.55%  8696  201s
    13    16 13700.5000    4 1510 14660.0000 13700.5000  6.55%  9049  208s
    17    20 13700.5000    5 1398 14660.0000 13700.5000  6.55%  7751  211s
    21    18 13700.5000    6 1349 14660.0000 13700.5000  6.55%  6763  215s
    25    26 13700.5000    7 1346 14660.0000 13700.5000  6.55%  6012  220s
    29    29 13700.7500    7 1349 14660.0000 13700.5000  6.55%  5723  227s
    33    33 13700.5000    8 1371 14660.0000 13700.5000  6.55%  5610  230s
    41    39 13700.5000    9 1303 14660.0000 13700.5000  6.55%  4907  242s
    50    56 13700.7500   10 1364 14660.0000 13700.5000  6.55%  4502  255s
    69    63 13700.5714   13 1280 14660.0000 13700.5000  6.55%  3847  273s
H   73    69                    14630.000000 13700.5000  6.35%  3820  273s
    76    72 13700.5714   13 1349 14630.0000 13700.5000  6.35%  3844  297s

Cutting planes:
  Gomory: 5
  Cover: 637
  Clique: 1292
  MIR: 52
  StrongCG: 5
  GUB cover: 95
  Zero half: 70

Explored 102 nodes (515261 simplex iterations) in 300.03 seconds
Thread count was 8 (of 8 available processors)

Solution count 10: 14630 14660 14690 ... 14900

Time limit reached
Best objective 1.463000000000e+04, best bound 1.370050000000e+04, gap 6.3534%

Gurobi 8.1.1 (win64) logging started 01/10/20 23:39:15

Changed value of parameter LogFile to ./tool/gurobi.log
   Prev: gurobi.log  Default: 
Changed value of parameter TimeLimit to 300.0
   Prev: 1e+100  Min: 0.0  Max: 1e+100  Default: 1e+100
Optimize a model with 3792 rows, 14253 columns and 314440 nonzeros
Variable types: 483 continuous, 13770 integer (13770 binary)
Coefficient statistics:
  Matrix range     [3e-01, 5e+00]
  Objective range  [3e+01, 1e+02]
  Bounds range     [1e+00, 1e+00]
  RHS range        [1e+00, 3e+01]
Found heuristic solution: objective 682030.00000
Presolve removed 1228 rows and 3384 columns
Presolve time: 0.56s
Presolved: 2564 rows, 10869 columns, 118159 nonzeros
Variable types: 357 continuous, 10512 integer (10385 binary)

Root relaxation: objective 1.301059e+04, 15100 iterations, 1.78 seconds

    Nodes    |    Current Node    |     Objective Bounds      |     Work
 Expl Unexpl |  Obj  Depth IntInf | Incumbent    BestBd   Gap | It/Node Time

     0     0 13010.5882    0  518 682030.000 13010.5882  98.1%     -    3s
H    0     0                    150960.00000 13010.5882  91.4%     -    3s
H    0     0                    20760.000000 13010.5882  37.3%     -    3s
H    0     0                    17540.000000 13010.5882  25.8%     -    3s
H    0     0                    17330.000000 13010.5882  24.9%     -    4s
H    0     0                    17120.000000 13010.5882  24.0%     -    4s
H    0     0                    16350.000000 13010.5882  20.4%     -    5s
     0     0 13021.3382    0 1349 16350.0000 13021.3382  20.4%     -    5s
H    0     0                    16140.000000 13021.3382  19.3%     -    5s
H    0     0                    16130.000000 13021.3382  19.3%     -    6s
     0     0 13054.2815    0 1214 16130.0000 13054.2815  19.1%     -    6s
H    0     0                    16085.000000 13054.2815  18.8%     -    7s
     0     0 13067.9168    0 1136 16085.0000 13067.9168  18.8%     -    7s
     0     0 13067.9168    0 1026 16085.0000 13067.9168  18.8%     -    7s
H    0     0                    16040.000000 13067.9168  18.5%     -   11s
H    0     0                    15995.000000 13067.9168  18.3%     -   11s
H    0     0                    15965.000000 13067.9168  18.1%     -   11s
     0     0 13109.3132    0 1473 15965.0000 13109.3132  17.9%     -   11s
H    0     0                    15875.000000 13109.3132  17.4%     -   13s
H    0     0                    15785.000000 13109.3132  17.0%     -   13s
     0     0 13204.4536    0 1381 15785.0000 13204.4536  16.3%     -   14s
H    0     0                    15710.000000 13204.4536  15.9%     -   15s
H    0     0                    15695.000000 13204.4536  15.9%     -   15s
     0     0 13238.4863    0 1365 15695.0000 13238.4863  15.7%     -   15s
H    0     0                    15575.000000 13238.4863  15.0%     -   16s
     0     0 13238.4863    0 1279 15575.0000 13238.4863  15.0%     -   16s
H    0     0                    15455.000000 13238.4863  14.3%     -   20s
H    0     0                    15335.000000 13238.4863  13.7%     -   20s
H    0     0                    15080.000000 13238.4863  12.2%     -   20s
H    0     0                    15020.000000 13238.4863  11.9%     -   20s
     0     0 13310.0882    0 1561 15020.0000 13310.0882  11.4%     -   20s
H    0     0                    15004.999994 13310.0882  11.3%     -   23s
H    0     0                    14960.000000 13310.0882  11.0%     -   23s
H    0     0                    14900.000000 13310.0882  10.7%     -   23s
H    0     0                    14870.000000 13310.0882  10.5%     -   23s
     0     0 13368.5882    0 1504 14870.0000 13368.5882  10.1%     -   23s
     0     0 13373.5882    0 1487 14870.0000 13373.5882  10.1%     -   25s
     0     0 13373.5882    0 1488 14870.0000 13373.5882  10.1%     -   27s
H    0     0                    14869.999996 13373.5882  10.1%     -   32s
H    0     0                    14839.999993 13373.5882  9.88%     -   32s
H    0     0                    14810.000000 13373.5882  9.70%     -   32s
H    0     0                    14780.000000 13373.5882  9.52%     -   32s
     0     0 13379.9729    0 1728 14780.0000 13379.9729  9.47%     -   32s
     0     0 13409.3235    0 1751 14780.0000 13409.3235  9.27%     -   39s
     0     0 13409.6985    0 1683 14780.0000 13409.6985  9.27%     -   43s
     0     0 13410.4485    0 1690 14780.0000 13410.4485  9.27%     -   48s
     0     0 13410.4485    0 1683 14780.0000 13410.4485  9.27%     -   50s
H    0     0                    14719.999976 13410.4485  8.90%     -   55s
     0     0 13412.6360    0 1779 14720.0000 13412.6360  8.88%     -   55s
     0     0 13499.4485    0 1712 14720.0000 13499.4485  8.29%     -   60s
     0     0 13524.0485    0 1698 14720.0000 13524.0485  8.12%     -   64s
     0     0 13563.5943    0 1675 14720.0000 13563.5943  7.86%     -   66s
     0     0 13563.6608    0 1620 14720.0000 13563.6608  7.86%     -   68s
     0     0 13563.7122    0 1767 14720.0000 13563.7122  7.86%     -   73s
     0     0 13577.3235    0 1723 14720.0000 13577.3235  7.76%     -   78s
     0     0 13601.3235    0 1693 14720.0000 13601.3235  7.60%     -   82s
     0     0 13601.3235    0 1671 14720.0000 13601.3235  7.60%     -   85s
     0     0 13623.8235    0 1694 14720.0000 13623.8235  7.45%     -   89s
     0     0 13650.8235    0 1626 14720.0000 13650.8235  7.26%     -   93s
H    0     0                    14690.000000 13650.8235  7.07%     -   96s
     0     0 13650.8235    0 1670 14690.0000 13650.8235  7.07%     -   96s
     0     0 13673.3235    0 1657 14690.0000 13673.3235  6.92%     -  100s
H    0     0                    14660.000000 13673.3235  6.73%     -  106s
     0     0 13673.3235    0 1679 14660.0000 13673.3235  6.73%     -  111s
     0     0 13674.4485    0 1700 14660.0000 13674.4485  6.72%     -  114s
     0     0 13674.4485    0  974 14660.0000 13674.4485  6.72%     -  134s
     0     2 13674.4485    0  770 14660.0000 13674.4485  6.72%     -  172s
     1     2     cutoff    1      14660.0000 13677.1250  6.70% 36000  182s
     3     4 13680.6724    2 1344 14660.0000 13679.0000  6.69% 15031  193s
     5     8 13700.5000    3 1503 14660.0000 13680.5000  6.68% 10945  199s
     9    12 13700.5000    4 1490 14660.0000 13700.5000  6.55%  8696  212s
    13    16 13700.5000    4 1510 14660.0000 13700.5000  6.55%  9049  218s
    17    20 13700.5000    5 1398 14660.0000 13700.5000  6.55%  7751  221s
    25    26 13700.5000    7 1346 14660.0000 13700.5000  6.55%  6012  226s
    29    29 13700.7500    7 1349 14660.0000 13700.5000  6.55%  5723  233s
    33    33 13700.5000    8 1371 14660.0000 13700.5000  6.55%  5610  236s
    41    39 13700.5000    9 1303 14660.0000 13700.5000  6.55%  4907  245s
    50    56 13700.7500   10 1364 14660.0000 13700.5000  6.55%  4502  254s
    69    63 13700.5714   13 1280 14660.0000 13700.5000  6.55%  3847  274s
H   73    69                    14630.000000 13700.5000  6.35%  3820  274s
    76    68 13700.5714   13 1349 14630.0000 13700.5000  6.35%  3844  300s

Cutting planes:
  Gomory: 5
  Cover: 637
  Clique: 1292
  MIR: 52
  StrongCG: 5
  GUB cover: 95
  Zero half: 70

Explored 94 nodes (493079 simplex iterations) in 300.02 seconds
Thread count was 8 (of 8 available processors)

Solution count 10: 14630 14660 14690 ... 14900

Time limit reached
Best objective 1.463000000000e+04, best bound 1.370050000000e+04, gap 6.3534%
